
Gurobi 7.0.2 (linux64, Java) logging started Mon 20 May 2019 08:32:56 PM -03

Optimize a model with 1140 rows, 20 columns and 3420 nonzeros
Model has 200 quadratic objective terms
Variable types: 0 continuous, 20 integer (20 binary)
Coefficient statistics:
  Matrix range     [1e+00, 1e+00]
  Objective range  [0e+00, 0e+00]
  QObjective range [2e+00, 2e+01]
  Bounds range     [1e+00, 1e+00]
  RHS range        [2e+00, 2e+00]
Found heuristic solution: objective -0
Presolve time: 0.00s
Presolved: 1321 rows, 201 columns, 3963 nonzeros
Variable types: 0 continuous, 201 integer (201 binary)
Presolved: 201 rows, 1522 columns, 4164 nonzeros

Presolve removed 201 rows and 1522 columns

Root relaxation: objective 2.537500e+02, 197 iterations, 0.00 seconds

    Nodes    |    Current Node    |     Objective Bounds      |     Work
 Expl Unexpl |  Obj  Depth IntInf | Incumbent    BestBd   Gap | It/Node Time

     0     0  253.75000    0  115   -0.00000  253.75000      -     -    0s
H    0     0                      15.0000000  253.75000  1592%     -    0s
H    0     0                      17.0000000  253.75000  1393%     -    0s
H    0     0                      20.0000000  253.75000  1169%     -    0s
H    0     0                      26.0000000  253.75000   876%     -    0s
     0     0  215.00000    0   99   26.00000  215.00000   727%     -    0s
     0     0  208.66667    0  111   26.00000  208.66667   703%     -    0s
     0     0  184.16667    0  119   26.00000  184.16667   608%     -    0s
     0     0  180.25000    0  118   26.00000  180.25000   593%     -    0s
     0     0  170.00000    0  116   26.00000  170.00000   554%     -    0s
     0     0  167.00000    0  113   26.00000  167.00000   542%     -    0s
     0     0  156.50000    0  121   26.00000  156.50000   502%     -    0s
     0     0  155.00000    0  114   26.00000  155.00000   496%     -    0s
     0     0  151.00000    0  140   26.00000  151.00000   481%     -    0s
     0     0  151.00000    0  140   26.00000  151.00000   481%     -    0s
     0     2  151.00000    0  139   26.00000  151.00000   481%     -    0s

Cutting planes:
  Gomory: 18
  Cover: 5
  Clique: 39
  MIR: 10
  Zero half: 64

Explored 110 nodes (3990 simplex iterations) in 0.35 seconds
Thread count was 4 (of 4 available processors)

Solution count 5: 26 20 17 ... -0
Pool objective bound 26

Optimal solution found (tolerance 1.00e-04)
Best objective 2.600000000000e+01, best bound 2.600000000000e+01, gap 0.0000%

Gurobi 7.0.2 (linux64, Java) logging started Mon 20 May 2019 08:51:06 PM -03

Optimize a model with 20 rows, 20 columns and 60 nonzeros
Model has 200 quadratic objective terms
Variable types: 0 continuous, 20 integer (20 binary)
Coefficient statistics:
  Matrix range     [1e+00, 1e+00]
  Objective range  [0e+00, 0e+00]
  QObjective range [2e+00, 2e+01]
  Bounds range     [1e+00, 1e+00]
  RHS range        [2e+00, 2e+00]
Found heuristic solution: objective -0
Modified 20 Q diagonals
Presolve time: 0.00s
Presolved: 20 rows, 20 columns, 60 nonzeros
Presolved model has 201 quadratic objective terms
Variable types: 0 continuous, 20 integer (20 binary)

Root relaxation: objective 2.688425e+02, 24 iterations, 0.00 seconds

    Nodes    |    Current Node    |     Objective Bounds      |     Work
 Expl Unexpl |  Obj  Depth IntInf | Incumbent    BestBd   Gap | It/Node Time

     0     0  268.84247    0   20   -0.00000  268.84247      -     -    0s
H    0     0                      51.0000000  268.84247   427%     -    0s
H    0     0                      95.0000000  268.84247   183%     -    0s
H    0     0                     116.0000000  268.84247   132%     -    0s
     0     2  268.84247    0   20  116.00000  268.84247   132%     -    0s
H   33    32                     118.0000000  230.89256  95.7%   2.8    0s
H   76    51                     125.0000000  210.85871  68.7%   2.9    0s

Explored 1027 nodes (2941 simplex iterations) in 0.03 seconds
Thread count was 4 (of 4 available processors)

Solution count 6: 125 118 116 ... -0
Pool objective bound 125

Optimal solution found (tolerance 1.00e-04)
Best objective 1.250000000000e+02, best bound 1.250000000000e+02, gap 0.0000%

Gurobi 7.0.2 (linux64, Java) logging started Mon 20 May 2019 08:52:35 PM -03

Optimize a model with 40 rows, 40 columns and 120 nonzeros
Model has 792 quadratic objective terms
Variable types: 0 continuous, 40 integer (40 binary)
Coefficient statistics:
  Matrix range     [1e+00, 1e+00]
  Objective range  [0e+00, 0e+00]
  QObjective range [2e+00, 2e+01]
  Bounds range     [1e+00, 1e+00]
  RHS range        [2e+00, 2e+00]
Found heuristic solution: objective -0
Modified 40 Q diagonals
Presolve time: 0.00s
Presolved: 40 rows, 40 columns, 120 nonzeros
Presolved model has 794 quadratic objective terms
Variable types: 0 continuous, 40 integer (40 binary)

Root relaxation: objective 1.034642e+03, 41 iterations, 0.00 seconds

    Nodes    |    Current Node    |     Objective Bounds      |     Work
 Expl Unexpl |  Obj  Depth IntInf | Incumbent    BestBd   Gap | It/Node Time

     0     0 1034.64173    0   40   -0.00000 1034.64173      -     -    0s
H    0     0                      30.0000000 1034.64173  3349%     -    0s
H    0     0                     236.0000000 1034.64173   338%     -    0s
H    0     0                     312.0000000 1034.64173   232%     -    0s
     0     2 1034.64173    0   40  312.00000 1034.64173   232%     -    0s
H   31    34                     319.0000000  954.23552   199%   3.0    0s
H   33    35                     341.0000000  954.23552   180%   3.0    0s
H   35    37                     366.0000000  954.23552   161%   3.0    0s
 143554 61306  567.35556   46   20  366.00000  610.62408  66.8%   2.5    5s
 317057 128379     cutoff   54       366.00000  564.39875  54.2%   2.5   10s
 489802 183763  505.89895   46   22  366.00000  540.31424  47.6%   2.5   15s
 663695 231107  523.64848   48   18  366.00000  523.64848  43.1%   2.5   20s
 845358 272786  495.92209   48   16  366.00000  510.31689  39.4%   2.5   25s
 1030811 307905  475.18347   51   19  366.00000  499.48093  36.5%   2.5   30s
 1214311 336537     cutoff   51       366.00000  490.30518  34.0%   2.4   35s
 1400258 359357  400.92838   50   14  366.00000  482.15366  31.7%   2.4   40s
 1583629 376546  409.03201   53   16  366.00000  474.89380  29.8%   2.4   45s
 1767877 388370  368.82694   54   15  366.00000  468.32789  28.0%   2.4   50s
 1955167 395248  381.31349   50   18  366.00000  462.20120  26.3%   2.4   55s
 2142597 396579  431.23822   51   17  366.00000  456.50919  24.7%   2.4   60s
 2329190 393093  402.17815   51   15  366.00000  451.08896  23.2%   2.4   65s
 2511724 384988  370.18640   53   11  366.00000  446.03990  21.9%   2.4   70s
 2693417 372094  441.10371   51   18  366.00000  441.10371  20.5%   2.4   75s
 2873269 354496  436.32171   50   19  366.00000  436.32171  19.2%   2.4   80s
 3050823 332108  424.77297   51   17  366.00000  431.58442  17.9%   2.4   85s
 3226027 305013  395.98414   49   16  366.00000  426.74945  16.6%   2.4   90s
 3400050 272760  421.70752   49   15  366.00000  421.70752  15.2%   2.4   95s
 3572158 235034  402.14677   45   16  366.00000  416.21377  13.7%   2.4  100s
 3744965 189686  409.38077   52   18  366.00000  409.72510  11.9%   2.4  105s
 3912097 134384  401.37687   54   16  366.00000  401.37687  9.67%   2.4  110s
 4049579 72254  389.89423   51   13  366.00000  389.89423  6.53%   2.4  115s

Explored 4146401 nodes (9981022 simplex iterations) in 118.86 seconds
Thread count was 4 (of 4 available processors)

Solution count 7: 366 341 319 ... -0
Pool objective bound 366

Optimal solution found (tolerance 1.00e-04)
Best objective 3.660000000000e+02, best bound 3.660000000000e+02, gap 0.0000%
